p cnf 66 869 
 
c chaque sommet si il est choisi on ne dois pas prendre ses adjaçent
c sommet 0 choisi :
-1 -2 0
-1 -4 0
-1 -7 0
-1 -9 0
c sommet 1 choisi :
-2 -1 0
-2 -3 0
-2 -6 0
-2 -8 0
c sommet 2 choisi :
-3 -2 0
-3 -5 0
-3 -7 0
-3 -10 0
c sommet 3 choisi :
-4 -1 0
-4 -5 0
-4 -6 0
-4 -10 0
c sommet 4 choisi :
-5 -3 0
-5 -4 0
-5 -8 0
-5 -9 0
c sommet 5 choisi :
-6 -2 0
-6 -4 0
-6 -11 0
c sommet 6 choisi :
-7 -1 0
-7 -3 0
-7 -11 0
c sommet 7 choisi :
-8 -2 0
-8 -5 0
-8 -11 0
c sommet 8 choisi :
-9 -1 0
-9 -5 0
-9 -11 0
c sommet 9 choisi :
-10 -3 0
-10 -4 0
-10 -11 0
c sommet 10 choisi :
-11 -6 0
-11 -7 0
-11 -8 0
-11 -9 0
-11 -10 0
c association des positions
c sommet 1 : une seule position 0
-12 1 0
-12 -13 0
-12 -14 0
-12 -15 0
-12 -16 0
c sommet 1 position 0 : pas d'autres sommets ayant cette position
-12 -17 0
-12 -22 0
-12 -27 0
-12 -32 0
-12 -37 0
-12 -42 0
-12 -47 0
-12 -52 0
-12 -57 0
-12 -62 0
c sommet 1 : une seule position 1
-13 1 0
-13 -12 0
-13 -14 0
-13 -15 0
-13 -16 0
c sommet 1 position 1 : pas d'autres sommets ayant cette position
-13 -18 0
-13 -23 0
-13 -28 0
-13 -33 0
-13 -38 0
-13 -43 0
-13 -48 0
-13 -53 0
-13 -58 0
-13 -63 0
c sommet 1 : une seule position 2
-14 1 0
-14 -12 0
-14 -13 0
-14 -15 0
-14 -16 0
c sommet 1 position 2 : pas d'autres sommets ayant cette position
-14 -19 0
-14 -24 0
-14 -29 0
-14 -34 0
-14 -39 0
-14 -44 0
-14 -49 0
-14 -54 0
-14 -59 0
-14 -64 0
c sommet 1 : une seule position 3
-15 1 0
-15 -12 0
-15 -13 0
-15 -14 0
-15 -16 0
c sommet 1 position 3 : pas d'autres sommets ayant cette position
-15 -20 0
-15 -25 0
-15 -30 0
-15 -35 0
-15 -40 0
-15 -45 0
-15 -50 0
-15 -55 0
-15 -60 0
-15 -65 0
c sommet 1 : une seule position 4
-16 1 0
-16 -12 0
-16 -13 0
-16 -14 0
-16 -15 0
c sommet 1 position 4 : pas d'autres sommets ayant cette position
-16 -21 0
-16 -26 0
-16 -31 0
-16 -36 0
-16 -41 0
-16 -46 0
-16 -51 0
-16 -56 0
-16 -61 0
-16 -66 0
c sommet 2 : une seule position 0
-17 2 0
-17 -18 0
-17 -19 0
-17 -20 0
-17 -21 0
c sommet 2 position 0 : pas d'autres sommets ayant cette position
-17 -12 0
-17 -22 0
-17 -27 0
-17 -32 0
-17 -37 0
-17 -42 0
-17 -47 0
-17 -52 0
-17 -57 0
-17 -62 0
c sommet 2 : une seule position 1
-18 2 0
-18 -17 0
-18 -19 0
-18 -20 0
-18 -21 0
c sommet 2 position 1 : pas d'autres sommets ayant cette position
-18 -13 0
-18 -23 0
-18 -28 0
-18 -33 0
-18 -38 0
-18 -43 0
-18 -48 0
-18 -53 0
-18 -58 0
-18 -63 0
c sommet 2 : une seule position 2
-19 2 0
-19 -17 0
-19 -18 0
-19 -20 0
-19 -21 0
c sommet 2 position 2 : pas d'autres sommets ayant cette position
-19 -14 0
-19 -24 0
-19 -29 0
-19 -34 0
-19 -39 0
-19 -44 0
-19 -49 0
-19 -54 0
-19 -59 0
-19 -64 0
c sommet 2 : une seule position 3
-20 2 0
-20 -17 0
-20 -18 0
-20 -19 0
-20 -21 0
c sommet 2 position 3 : pas d'autres sommets ayant cette position
-20 -15 0
-20 -25 0
-20 -30 0
-20 -35 0
-20 -40 0
-20 -45 0
-20 -50 0
-20 -55 0
-20 -60 0
-20 -65 0
c sommet 2 : une seule position 4
-21 2 0
-21 -17 0
-21 -18 0
-21 -19 0
-21 -20 0
c sommet 2 position 4 : pas d'autres sommets ayant cette position
-21 -16 0
-21 -26 0
-21 -31 0
-21 -36 0
-21 -41 0
-21 -46 0
-21 -51 0
-21 -56 0
-21 -61 0
-21 -66 0
c sommet 3 : une seule position 0
-22 3 0
-22 -23 0
-22 -24 0
-22 -25 0
-22 -26 0
c sommet 3 position 0 : pas d'autres sommets ayant cette position
-22 -12 0
-22 -17 0
-22 -27 0
-22 -32 0
-22 -37 0
-22 -42 0
-22 -47 0
-22 -52 0
-22 -57 0
-22 -62 0
c sommet 3 : une seule position 1
-23 3 0
-23 -22 0
-23 -24 0
-23 -25 0
-23 -26 0
c sommet 3 position 1 : pas d'autres sommets ayant cette position
-23 -13 0
-23 -18 0
-23 -28 0
-23 -33 0
-23 -38 0
-23 -43 0
-23 -48 0
-23 -53 0
-23 -58 0
-23 -63 0
c sommet 3 : une seule position 2
-24 3 0
-24 -22 0
-24 -23 0
-24 -25 0
-24 -26 0
c sommet 3 position 2 : pas d'autres sommets ayant cette position
-24 -14 0
-24 -19 0
-24 -29 0
-24 -34 0
-24 -39 0
-24 -44 0
-24 -49 0
-24 -54 0
-24 -59 0
-24 -64 0
c sommet 3 : une seule position 3
-25 3 0
-25 -22 0
-25 -23 0
-25 -24 0
-25 -26 0
c sommet 3 position 3 : pas d'autres sommets ayant cette position
-25 -15 0
-25 -20 0
-25 -30 0
-25 -35 0
-25 -40 0
-25 -45 0
-25 -50 0
-25 -55 0
-25 -60 0
-25 -65 0
c sommet 3 : une seule position 4
-26 3 0
-26 -22 0
-26 -23 0
-26 -24 0
-26 -25 0
c sommet 3 position 4 : pas d'autres sommets ayant cette position
-26 -16 0
-26 -21 0
-26 -31 0
-26 -36 0
-26 -41 0
-26 -46 0
-26 -51 0
-26 -56 0
-26 -61 0
-26 -66 0
c sommet 4 : une seule position 0
-27 4 0
-27 -28 0
-27 -29 0
-27 -30 0
-27 -31 0
c sommet 4 position 0 : pas d'autres sommets ayant cette position
-27 -12 0
-27 -17 0
-27 -22 0
-27 -32 0
-27 -37 0
-27 -42 0
-27 -47 0
-27 -52 0
-27 -57 0
-27 -62 0
c sommet 4 : une seule position 1
-28 4 0
-28 -27 0
-28 -29 0
-28 -30 0
-28 -31 0
c sommet 4 position 1 : pas d'autres sommets ayant cette position
-28 -13 0
-28 -18 0
-28 -23 0
-28 -33 0
-28 -38 0
-28 -43 0
-28 -48 0
-28 -53 0
-28 -58 0
-28 -63 0
c sommet 4 : une seule position 2
-29 4 0
-29 -27 0
-29 -28 0
-29 -30 0
-29 -31 0
c sommet 4 position 2 : pas d'autres sommets ayant cette position
-29 -14 0
-29 -19 0
-29 -24 0
-29 -34 0
-29 -39 0
-29 -44 0
-29 -49 0
-29 -54 0
-29 -59 0
-29 -64 0
c sommet 4 : une seule position 3
-30 4 0
-30 -27 0
-30 -28 0
-30 -29 0
-30 -31 0
c sommet 4 position 3 : pas d'autres sommets ayant cette position
-30 -15 0
-30 -20 0
-30 -25 0
-30 -35 0
-30 -40 0
-30 -45 0
-30 -50 0
-30 -55 0
-30 -60 0
-30 -65 0
c sommet 4 : une seule position 4
-31 4 0
-31 -27 0
-31 -28 0
-31 -29 0
-31 -30 0
c sommet 4 position 4 : pas d'autres sommets ayant cette position
-31 -16 0
-31 -21 0
-31 -26 0
-31 -36 0
-31 -41 0
-31 -46 0
-31 -51 0
-31 -56 0
-31 -61 0
-31 -66 0
c sommet 5 : une seule position 0
-32 5 0
-32 -33 0
-32 -34 0
-32 -35 0
-32 -36 0
c sommet 5 position 0 : pas d'autres sommets ayant cette position
-32 -12 0
-32 -17 0
-32 -22 0
-32 -27 0
-32 -37 0
-32 -42 0
-32 -47 0
-32 -52 0
-32 -57 0
-32 -62 0
c sommet 5 : une seule position 1
-33 5 0
-33 -32 0
-33 -34 0
-33 -35 0
-33 -36 0
c sommet 5 position 1 : pas d'autres sommets ayant cette position
-33 -13 0
-33 -18 0
-33 -23 0
-33 -28 0
-33 -38 0
-33 -43 0
-33 -48 0
-33 -53 0
-33 -58 0
-33 -63 0
c sommet 5 : une seule position 2
-34 5 0
-34 -32 0
-34 -33 0
-34 -35 0
-34 -36 0
c sommet 5 position 2 : pas d'autres sommets ayant cette position
-34 -14 0
-34 -19 0
-34 -24 0
-34 -29 0
-34 -39 0
-34 -44 0
-34 -49 0
-34 -54 0
-34 -59 0
-34 -64 0
c sommet 5 : une seule position 3
-35 5 0
-35 -32 0
-35 -33 0
-35 -34 0
-35 -36 0
c sommet 5 position 3 : pas d'autres sommets ayant cette position
-35 -15 0
-35 -20 0
-35 -25 0
-35 -30 0
-35 -40 0
-35 -45 0
-35 -50 0
-35 -55 0
-35 -60 0
-35 -65 0
c sommet 5 : une seule position 4
-36 5 0
-36 -32 0
-36 -33 0
-36 -34 0
-36 -35 0
c sommet 5 position 4 : pas d'autres sommets ayant cette position
-36 -16 0
-36 -21 0
-36 -26 0
-36 -31 0
-36 -41 0
-36 -46 0
-36 -51 0
-36 -56 0
-36 -61 0
-36 -66 0
c sommet 6 : une seule position 0
-37 6 0
-37 -38 0
-37 -39 0
-37 -40 0
-37 -41 0
c sommet 6 position 0 : pas d'autres sommets ayant cette position
-37 -12 0
-37 -17 0
-37 -22 0
-37 -27 0
-37 -32 0
-37 -42 0
-37 -47 0
-37 -52 0
-37 -57 0
-37 -62 0
c sommet 6 : une seule position 1
-38 6 0
-38 -37 0
-38 -39 0
-38 -40 0
-38 -41 0
c sommet 6 position 1 : pas d'autres sommets ayant cette position
-38 -13 0
-38 -18 0
-38 -23 0
-38 -28 0
-38 -33 0
-38 -43 0
-38 -48 0
-38 -53 0
-38 -58 0
-38 -63 0
c sommet 6 : une seule position 2
-39 6 0
-39 -37 0
-39 -38 0
-39 -40 0
-39 -41 0
c sommet 6 position 2 : pas d'autres sommets ayant cette position
-39 -14 0
-39 -19 0
-39 -24 0
-39 -29 0
-39 -34 0
-39 -44 0
-39 -49 0
-39 -54 0
-39 -59 0
-39 -64 0
c sommet 6 : une seule position 3
-40 6 0
-40 -37 0
-40 -38 0
-40 -39 0
-40 -41 0
c sommet 6 position 3 : pas d'autres sommets ayant cette position
-40 -15 0
-40 -20 0
-40 -25 0
-40 -30 0
-40 -35 0
-40 -45 0
-40 -50 0
-40 -55 0
-40 -60 0
-40 -65 0
c sommet 6 : une seule position 4
-41 6 0
-41 -37 0
-41 -38 0
-41 -39 0
-41 -40 0
c sommet 6 position 4 : pas d'autres sommets ayant cette position
-41 -16 0
-41 -21 0
-41 -26 0
-41 -31 0
-41 -36 0
-41 -46 0
-41 -51 0
-41 -56 0
-41 -61 0
-41 -66 0
c sommet 7 : une seule position 0
-42 7 0
-42 -43 0
-42 -44 0
-42 -45 0
-42 -46 0
c sommet 7 position 0 : pas d'autres sommets ayant cette position
-42 -12 0
-42 -17 0
-42 -22 0
-42 -27 0
-42 -32 0
-42 -37 0
-42 -47 0
-42 -52 0
-42 -57 0
-42 -62 0
c sommet 7 : une seule position 1
-43 7 0
-43 -42 0
-43 -44 0
-43 -45 0
-43 -46 0
c sommet 7 position 1 : pas d'autres sommets ayant cette position
-43 -13 0
-43 -18 0
-43 -23 0
-43 -28 0
-43 -33 0
-43 -38 0
-43 -48 0
-43 -53 0
-43 -58 0
-43 -63 0
c sommet 7 : une seule position 2
-44 7 0
-44 -42 0
-44 -43 0
-44 -45 0
-44 -46 0
c sommet 7 position 2 : pas d'autres sommets ayant cette position
-44 -14 0
-44 -19 0
-44 -24 0
-44 -29 0
-44 -34 0
-44 -39 0
-44 -49 0
-44 -54 0
-44 -59 0
-44 -64 0
c sommet 7 : une seule position 3
-45 7 0
-45 -42 0
-45 -43 0
-45 -44 0
-45 -46 0
c sommet 7 position 3 : pas d'autres sommets ayant cette position
-45 -15 0
-45 -20 0
-45 -25 0
-45 -30 0
-45 -35 0
-45 -40 0
-45 -50 0
-45 -55 0
-45 -60 0
-45 -65 0
c sommet 7 : une seule position 4
-46 7 0
-46 -42 0
-46 -43 0
-46 -44 0
-46 -45 0
c sommet 7 position 4 : pas d'autres sommets ayant cette position
-46 -16 0
-46 -21 0
-46 -26 0
-46 -31 0
-46 -36 0
-46 -41 0
-46 -51 0
-46 -56 0
-46 -61 0
-46 -66 0
c sommet 8 : une seule position 0
-47 8 0
-47 -48 0
-47 -49 0
-47 -50 0
-47 -51 0
c sommet 8 position 0 : pas d'autres sommets ayant cette position
-47 -12 0
-47 -17 0
-47 -22 0
-47 -27 0
-47 -32 0
-47 -37 0
-47 -42 0
-47 -52 0
-47 -57 0
-47 -62 0
c sommet 8 : une seule position 1
-48 8 0
-48 -47 0
-48 -49 0
-48 -50 0
-48 -51 0
c sommet 8 position 1 : pas d'autres sommets ayant cette position
-48 -13 0
-48 -18 0
-48 -23 0
-48 -28 0
-48 -33 0
-48 -38 0
-48 -43 0
-48 -53 0
-48 -58 0
-48 -63 0
c sommet 8 : une seule position 2
-49 8 0
-49 -47 0
-49 -48 0
-49 -50 0
-49 -51 0
c sommet 8 position 2 : pas d'autres sommets ayant cette position
-49 -14 0
-49 -19 0
-49 -24 0
-49 -29 0
-49 -34 0
-49 -39 0
-49 -44 0
-49 -54 0
-49 -59 0
-49 -64 0
c sommet 8 : une seule position 3
-50 8 0
-50 -47 0
-50 -48 0
-50 -49 0
-50 -51 0
c sommet 8 position 3 : pas d'autres sommets ayant cette position
-50 -15 0
-50 -20 0
-50 -25 0
-50 -30 0
-50 -35 0
-50 -40 0
-50 -45 0
-50 -55 0
-50 -60 0
-50 -65 0
c sommet 8 : une seule position 4
-51 8 0
-51 -47 0
-51 -48 0
-51 -49 0
-51 -50 0
c sommet 8 position 4 : pas d'autres sommets ayant cette position
-51 -16 0
-51 -21 0
-51 -26 0
-51 -31 0
-51 -36 0
-51 -41 0
-51 -46 0
-51 -56 0
-51 -61 0
-51 -66 0
c sommet 9 : une seule position 0
-52 9 0
-52 -53 0
-52 -54 0
-52 -55 0
-52 -56 0
c sommet 9 position 0 : pas d'autres sommets ayant cette position
-52 -12 0
-52 -17 0
-52 -22 0
-52 -27 0
-52 -32 0
-52 -37 0
-52 -42 0
-52 -47 0
-52 -57 0
-52 -62 0
c sommet 9 : une seule position 1
-53 9 0
-53 -52 0
-53 -54 0
-53 -55 0
-53 -56 0
c sommet 9 position 1 : pas d'autres sommets ayant cette position
-53 -13 0
-53 -18 0
-53 -23 0
-53 -28 0
-53 -33 0
-53 -38 0
-53 -43 0
-53 -48 0
-53 -58 0
-53 -63 0
c sommet 9 : une seule position 2
-54 9 0
-54 -52 0
-54 -53 0
-54 -55 0
-54 -56 0
c sommet 9 position 2 : pas d'autres sommets ayant cette position
-54 -14 0
-54 -19 0
-54 -24 0
-54 -29 0
-54 -34 0
-54 -39 0
-54 -44 0
-54 -49 0
-54 -59 0
-54 -64 0
c sommet 9 : une seule position 3
-55 9 0
-55 -52 0
-55 -53 0
-55 -54 0
-55 -56 0
c sommet 9 position 3 : pas d'autres sommets ayant cette position
-55 -15 0
-55 -20 0
-55 -25 0
-55 -30 0
-55 -35 0
-55 -40 0
-55 -45 0
-55 -50 0
-55 -60 0
-55 -65 0
c sommet 9 : une seule position 4
-56 9 0
-56 -52 0
-56 -53 0
-56 -54 0
-56 -55 0
c sommet 9 position 4 : pas d'autres sommets ayant cette position
-56 -16 0
-56 -21 0
-56 -26 0
-56 -31 0
-56 -36 0
-56 -41 0
-56 -46 0
-56 -51 0
-56 -61 0
-56 -66 0
c sommet 10 : une seule position 0
-57 10 0
-57 -58 0
-57 -59 0
-57 -60 0
-57 -61 0
c sommet 10 position 0 : pas d'autres sommets ayant cette position
-57 -12 0
-57 -17 0
-57 -22 0
-57 -27 0
-57 -32 0
-57 -37 0
-57 -42 0
-57 -47 0
-57 -52 0
-57 -62 0
c sommet 10 : une seule position 1
-58 10 0
-58 -57 0
-58 -59 0
-58 -60 0
-58 -61 0
c sommet 10 position 1 : pas d'autres sommets ayant cette position
-58 -13 0
-58 -18 0
-58 -23 0
-58 -28 0
-58 -33 0
-58 -38 0
-58 -43 0
-58 -48 0
-58 -53 0
-58 -63 0
c sommet 10 : une seule position 2
-59 10 0
-59 -57 0
-59 -58 0
-59 -60 0
-59 -61 0
c sommet 10 position 2 : pas d'autres sommets ayant cette position
-59 -14 0
-59 -19 0
-59 -24 0
-59 -29 0
-59 -34 0
-59 -39 0
-59 -44 0
-59 -49 0
-59 -54 0
-59 -64 0
c sommet 10 : une seule position 3
-60 10 0
-60 -57 0
-60 -58 0
-60 -59 0
-60 -61 0
c sommet 10 position 3 : pas d'autres sommets ayant cette position
-60 -15 0
-60 -20 0
-60 -25 0
-60 -30 0
-60 -35 0
-60 -40 0
-60 -45 0
-60 -50 0
-60 -55 0
-60 -65 0
c sommet 10 : une seule position 4
-61 10 0
-61 -57 0
-61 -58 0
-61 -59 0
-61 -60 0
c sommet 10 position 4 : pas d'autres sommets ayant cette position
-61 -16 0
-61 -21 0
-61 -26 0
-61 -31 0
-61 -36 0
-61 -41 0
-61 -46 0
-61 -51 0
-61 -56 0
-61 -66 0
c sommet 11 : une seule position 0
-62 11 0
-62 -63 0
-62 -64 0
-62 -65 0
-62 -66 0
c sommet 11 position 0 : pas d'autres sommets ayant cette position
-62 -12 0
-62 -17 0
-62 -22 0
-62 -27 0
-62 -32 0
-62 -37 0
-62 -42 0
-62 -47 0
-62 -52 0
-62 -57 0
c sommet 11 : une seule position 1
-63 11 0
-63 -62 0
-63 -64 0
-63 -65 0
-63 -66 0
c sommet 11 position 1 : pas d'autres sommets ayant cette position
-63 -13 0
-63 -18 0
-63 -23 0
-63 -28 0
-63 -33 0
-63 -38 0
-63 -43 0
-63 -48 0
-63 -53 0
-63 -58 0
c sommet 11 : une seule position 2
-64 11 0
-64 -62 0
-64 -63 0
-64 -65 0
-64 -66 0
c sommet 11 position 2 : pas d'autres sommets ayant cette position
-64 -14 0
-64 -19 0
-64 -24 0
-64 -29 0
-64 -34 0
-64 -39 0
-64 -44 0
-64 -49 0
-64 -54 0
-64 -59 0
c sommet 11 : une seule position 3
-65 11 0
-65 -62 0
-65 -63 0
-65 -64 0
-65 -66 0
c sommet 11 position 3 : pas d'autres sommets ayant cette position
-65 -15 0
-65 -20 0
-65 -25 0
-65 -30 0
-65 -35 0
-65 -40 0
-65 -45 0
-65 -50 0
-65 -55 0
-65 -60 0
c sommet 11 : une seule position 4
-66 11 0
-66 -62 0
-66 -63 0
-66 -64 0
-66 -65 0
c sommet 11 position 4 : pas d'autres sommets ayant cette position
-66 -16 0
-66 -21 0
-66 -26 0
-66 -31 0
-66 -36 0
-66 -41 0
-66 -46 0
-66 -51 0
-66 -56 0
-66 -61 0
c clauses d'obligations d'attributions des positions
13 18 23 28 33 38 43 48 53 58 63 0
14 19 24 29 34 39 44 49 54 59 64 0
15 20 25 30 35 40 45 50 55 60 65 0
16 21 26 31 36 41 46 51 56 61 66 0
